sat
(:max-memory         18.05
 :memory             18.05
 :nlsat-conflicts    13
 :nlsat-propagations 94
 :nlsat-stages       34
 :num-allocs         22486
 :rlimit-count       5817
 :time               0.00
 :total-time         0.01)
